10
1 0 8
2 0 3
2 1 8
3 0 8
3 1 10
3 2 2
4 0 4
4 1 3
4 2 5
4 3 11
5 0 1
5 1 5
5 2 11
5 3 3
5 4 10
6 0 6
6 1 6
6 2 4
6 3 6
6 4 8
6 5 8
7 0 3
7 1 4
7 2 6
7 3 10
7 4 2
7 5 5
7 6 9
8 0 10
8 1 5
8 2 1
8 3 7
8 4 9
8 5 9
8 6 6
8 7 3
9 0 1
9 1 4
9 2 10
9 3 7
9 4 6
9 5 8
9 6 2
9 7 9
9 8 2
